NAME : C3.639741.tour
COMMENT : Length = 639741
COMMENT : Found by LKH [Keld Helsgaun] Sun Dec 17 17:03:46 2017
TYPE : TOUR
DIMENSION : 108
TOUR_SECTION
1
54
59
41
22
74
73
75
76
57
24
23
42
3
58
16
44
106
14
95
96
60
93
98
88
43
15
45
39
107
29
77
78
4
80
79
35
36
72
67
66
104
90
19
84
61
6
85
18
46
9
47
48
37
50
65
103
27
13
81
69
30
25
55
5
56
26
40
68
108
28
70
2
51
34
82
10
52
21
31
71
11
63
102
53
32
89
8
83
49
20
12
64
91
33
105
7
97
100
94
99
38
101
92
86
62
17
87
-1
EOF
